letting n = 10
letting board=[[4, 4, 4, 4, 4, 4, 4, 9, 4, 4], [4, 4, 4, 4, 4, 4, 9, 9, 9, 4], [4, 4, 4, 0, 4, 4, 4, 9, 4, 4], [4, 4, 4, 2, 2, 2, 4, 4, 4, 4], [4, 4, 6, 6, 6, 6, 6, 6, 4, 4], [4, 5, 5, 5, 5, 5, 5, 5, 5, 4], [4, 4, 1, 1, 8, 8, 7, 7, 4, 4], [3, 3, 1, 1, 8, 8, 7, 7, 3, 3], [3, 3, 8, 8, 8, 8, 8, 8, 8, 3], [3, 3, 3, 3, 3, 3, 3, 3, 3, 3]]
